NAME : mtspf.pid16379.gtsp.134217870.tour
COMMENT : Length = 134217870
COMMENT : Found by LKH [Keld Helsgaun] Sat Jan  4 20:20:47 2025
TYPE : TOUR
DIMENSION : 85
TOUR_SECTION
1
24
25
22
23
5
8
9
6
7
35
36
37
34
2
51
52
53
50
12
13
10
11
15
16
17
14
27
28
29
26
3
77
74
75
76
32
33
30
31
59
60
61
58
4
20
21
18
19
72
73
70
71
69
66
67
68
84
85
82
83
63
64
65
62
56
57
54
55
47
48
49
46
40
41
38
39
45
42
43
44
79
80
81
78
-1
EOF
